#--------CAUTION--------
#Shellscript may overwrite some lines to change parameters.


#----set the space to simulate
variable xsn equal 0.145		#x space negative dir
variable xsp equal 0.23		#x space positive dir
variable hwid equal 0.0735	#bucket center offset
variable ysn equal 0.115-${hwid}	#y space negative dir
variable ysp equal 0.115+${hwid}	#y
variable zsn equal 0.18    #z
variable zsp equal 0.03    #z
variable ish equal 0.10     #insertion space height

variable yMod equal 150.e6
variable pois equal 0.2
variable cR equal 0.4
variable cF equal 0.9
variable cRF equal 0.9
variable charV equal 2.
variable tstep equal 0.00001
variable dens equal 2000
variable radi equal 0.0075
variable dstep equal 10000
variable fstep equal 800
variable nparticle equal 2900

# Moving mesh example
atom_style	granular
boundary	m m m
newton		off

communicate	single vel yes
units		si

region		reg block -${xsn} ${xsp} -${ysn} ${ysp} -${zsn} ${zsp} units box
create_box	1 reg

neighbor	0.015 bin
neigh_modify	delay 0 one 30000 page 300000
#neigh_modify    delay 0

#Material properties 
fix 		m1 all property/global youngsModulus peratomtype ${yMod}
fix 		m2 all property/global poissonsRatio peratomtype ${pois}
fix 		m3 all property/global coefficientRestitution peratomtypepair 1 ${cR}
fix 		m4 all property/global coefficientFriction peratomtypepair 1 ${cF}
fix 		m5 all property/global characteristicVelocity scalar ${charV}
fix         m6 all property/global coefficientRollingFriction peratomtypepair 1 ${cRF}
hard_particles yes

pair_style	gran model hooke tangential history cohesion off rolling_friction cdt
pair_coeff	* *

timestep    ${tstep}

fix		1 all nve/sphere
fix		2 all gravity 9.80665 vector 0.0 0.0 -1.0

#box walls
fix boxwalls_x1 all wall/gran model hooke tangential history primitive type 1 xplane -${xsn}
fix boxwalls_x2 all wall/gran model hooke tangential history primitive type 1 xplane +${xsp}
fix boxwalls_y1 all wall/gran model hooke tangential history primitive type 1 yplane -${ysn}
fix boxwalls_y2 all wall/gran model hooke tangential history primitive type 1 yplane +${ysp}
fix boxwalls_z1 all wall/gran model hooke tangential history primitive type 1 zplane -${zsn}
fix boxwalls_z2 all wall/gran model hooke tangential history primitive type 1 zplane +${zsp}


#import mesh from cad:
fix     cad1 all mesh/surface/stress file meshes/bucket.stl type 1 &
        rotate axis 0. 0. 1. angle 180. rotate axis 1. 0. 0. angle -90. rotate axis 0. 1. 0. angle 61.3 &
        scale 0.001 reference_point 0 ${hwid} 0 stress on

fix     cad2 all mesh/surface file meshes/plate.stl type 1 move 90. -260 -80 &
        scale 0.001

#region of insertion
region		bc block -${xsn} ${xsp} -${ysn} ${ysp} -${zsn} ${zsp} units box

#particle distributions
fix			pts1 all particletemplate/sphere 15485863 atom_type 1 density constant ${dens} radius constant ${radi}
fix			pdd1 all particledistribution/discrete 15485867 1 pts1 1.0

fix         ts_check all check/timestep/gran 1000 0.1 0.1
fix         ins all insert/pack seed 32452843 distributiontemplate pdd1 vel constant 0. 0. -0.8 &
            insert_every 2000 overlapcheck yes all_in yes particles_in_region ${nparticle} region bc

#get total force and torque of mesh "cad1"
variable time equal step*dt
variable fx equal f_cad1[1]
variable fy equal f_cad1[2]
variable fz equal f_cad1[3]
variable Mx equal f_cad1[4]
variable My equal f_cad1[5]
variable Mz equal f_cad1[6]
variable Rx equal f_cad1[7]
variable Ry equal f_cad1[8]
variable Rz equal f_cad1[9]

#make a dump of particles and the stl file 
dump    dmp all custom/vtk  ${dstep} posts/r_postyM${yMod}_ps${pois}_cR${cR}_cF${cF}_cRF${cRF}_cV${charV}_ts${tstep}_d${dens}_r${radi}/movingMesh_*.vtk id type type x y z ix iy iz vx vy vz fx fy fz omegax omegay omegaz radius
dump    dumpstl all mesh/stl ${dstep} posts/r_postyM${yMod}_ps${pois}_cR${cR}_cF${cF}_cRF${cRF}_cV${charV}_ts${tstep}_d${dens}_r${radi}/dump*.stl
fix forceslog all print  ${fstep} "${time},${fx},${fy},${fz},${Mx},${My},${Mz},${Rx},${Ry},${Rz}" &
    file ../../../csv/r/r_yM${yMod}_ps${pois}_cR${cR}_cF${cF}_cRF${cRF}_cV${charV}_ts${tstep}_d${dens}_r${radi}.csv title "t,Fx,Fy,Fz,Mx,My,Mz,Rx,Ry,Rz" screen no
#print every NUMBER steps

#run with particle insertion
run     20000 upto
unfix   ins


#run to let particle settle
run     49999 upto

#make the particles flat
fix     plate all wall/gran model hooke tangential history mesh n_meshes 1 meshes cad2
run     1
fix     moveplate1 all move/mesh mesh cad2 linear 0. 0.5 0.
run     112500 upto
unfix   moveplate1

fix     moveplate2 all move/mesh mesh cad2 linear 0. 0. 0.5
run     149999 upto
unfix   moveplate2
unfix   plate
#use the imported mesh as granular wall
fix     bucket_wall all wall/gran model hooke tangential history mesh n_meshes 1 meshes cad1
run     1


#-------------------------
fix     movecad1 all move/mesh mesh cad1 rotate origin 0. 0. 0. axis 0. -1. 0. period 94.9346
run     152400 upto
unfix   movecad1

#-------------------------
fix     movecad2 all move/mesh mesh cad1 rotate origin 0. 0. 0. axis 0. -1. 0. period 23.2766
run     170000 upto
unfix   movecad2

#-------------------------
fix     movecad3 all move/mesh mesh cad1 rotate origin 0. 0. 0. axis 0. -1. 0. period 19.4578
run     312400 upto
unfix   movecad3

#-------------------------
fix     movecad4 all move/mesh mesh cad1 rotate origin 0. 0. 0. axis 0. -1. 0. period 22.7349
run     322000 upto
unfix   movecad4

#-------------------------
fix     movecad5 all move/mesh mesh cad1 rotate origin 0. 0. 0. axis 0. -1. 0. period 17.7136
run     462000 upto
unfix   movecad5

#-------------------------
fix     movecad6 all move/mesh mesh cad1 rotate origin 0. 0. 0. axis 0. -1. 0. period 23.3453
run     469200 upto
unfix   movecad6


#-------------------------
fix     movecad7 all move/mesh mesh cad1 rotate origin 0. 0. 0. axis 0. -1. 0. period 18.2028
run     614800 upto
unfix   movecad7

#-------------------------
fix     movecad all move/mesh mesh cad1 rotate origin 0. 0. 0. axis 0. -1. 0. period 21.5401
run     628400 upto
unfix   movecad

#-------------------------
fix     movecad all move/mesh mesh cad1 rotate origin 0. 0. 0. axis 0. -1. 0. period 17.8696
run     764400 upto
unfix   movecad


